Geographic Exponential Decay
20 251 190 79 139 260 284 81 310 197 225 290 94 250 291 74 315 120 177 14 119
p edge 320 322
e 0 285 1.0
e 1 218 2.0
e 1 0 1.0
e 2 58 4.0
e 2 1 3.0
e 3 290 71.0
e 3 251 6.0
e 3 2 4.0
e 4 182 2.0
e 4 3 18.0
e 5 234 1.0
e 5 4 4.0
e 6 307 4.0
e 6 5 5.0
e 7 293 5.0
e 7 6 3.0
e 8 33 4.0
e 8 7 1.0
e 9 175 10.0
e 9 65 19.0
e 9 8 21.0
e 10 121 1.0
e 10 9 10.0
e 11 284 49.0
e 12 289 1.0
e 12 10 3.0
e 13 272 1.0
e 13 12 1.0
e 14 234 33.0
e 14 148 100.0
e 14 61 1.0
e 14 258 42.0
e 14 116 10.0
e 15 229 11.0
e 15 13 8.0
e 16 199 8.0
e 16 85 7.0
e 16 15 22.0
e 17 217 2.0
e 17 16 17.0
e 18 47 2.0
e 18 17 2.0
e 19 77 11.0
e 19 18 10.0
e 20 200 7.0
e 20 19 4.0
e 21 297 1.0
e 21 20 1.0
e 22 23 7.0
e 22 51 15.0
e 22 21 7.0
e 23 92 2.0
e 24 113 2.0
e 24 22 18.0
e 25 133 7.0
e 25 24 1.0
e 26 59 44.0
e 26 134 40.0
e 26 295 16.0
e 26 25 10.0
e 27 28 2.0
e 27 26 24.0
e 29 287 1.0
e 29 27 1.0
e 30 202 1.0
e 30 29 2.0
e 31 200 3.0
e 31 32 21.0
e 34 136 1.0
e 34 30 4.0
e 35 36 5.0
e 35 34 2.0
e 37 153 16.0
e 37 103 22.0
e 37 35 4.0
e 38 42 9.0
e 38 37 7.0
e 39 122 2.0
e 39 38 7.0
e 40 237 3.0
e 40 39 3.0
e 41 43 1.0
e 41 40 4.0
e 44 185 1.0
e 44 41 2.0
e 45 64 22.0
e 45 46 8.0
e 45 44 1.0
e 48 209 4.0
e 48 45 14.0
e 49 50 1.0
e 49 48 3.0
e 52 245 1.0
e 52 49 1.0
e 53 225 95.0
e 53 52 8.0
e 54 198 1.0
e 54 53 4.0
e 55 231 10.0
e 55 54 1.0
e 56 144 1.0
e 56 55 2.0
e 57 250 90.0
e 60 93 1.0
e 60 56 5.0
e 62 141 1.0
e 62 60 6.0
e 63 94 72.0
e 63 62 1.0
e 66 78 4.0
e 66 63 3.0
e 67 123 4.0
e 67 66 1.0
e 68 69 1.0
e 68 67 4.0
e 70 151 2.0
e 70 68 2.0
e 71 142 5.0
e 71 70 1.0
e 72 155 6.0
e 72 71 2.0
e 73 104 3.0
e 73 72 3.0
e 74 276 100.0
e 74 75 29.0
e 74 186 7.0
e 74 86 95.0
e 74 278 72.0
e 74 73 28.0
e 76 159 1.0
e 76 74 59.0
e 79 183 75.0
e 79 291 72.0
e 79 248 38.0
e 79 213 68.0
e 79 275 87.0
e 80 105 5.0
e 80 76 3.0
e 81 206 9.0
e 81 271 71.0
e 81 296 78.0
e 81 82 41.0
e 81 207 96.0
e 81 80 19.0
e 83 303 3.0
e 83 81 15.0
e 84 87 1.0
e 84 83 3.0
e 88 89 4.0
e 88 84 1.0
e 90 95 11.0
e 90 88 9.0
e 91 158 16.0
e 91 90 5.0
e 94 311 27.0
e 94 259 52.0
e 94 232 14.0
e 94 154 16.0
e 96 273 1.0
e 96 91 1.0
e 97 172 5.0
e 97 96 9.0
e 98 288 6.0
e 98 97 10.0
e 99 278 15.0
e 100 101 2.0
e 100 98 2.0
e 102 265 1.0
e 102 100 2.0
e 106 107 10.0
e 106 102 2.0
e 108 124 1.0
e 108 106 1.0
e 109 316 22.0
e 109 309 8.0
e 109 108 12.0
e 110 111 2.0
e 110 109 22.0
e 112 114 2.0
e 112 110 1.0
e 115 291 46.0
e 117 118 3.0
e 117 112 5.0
e 119 120 27.0
e 119 125 97.0
e 119 238 34.0
e 119 127 91.0
e 119 126 28.0
e 119 117 99.0
e 120 152 96.0
e 120 184 92.0
e 120 208 62.0
e 120 222 72.0
e 128 177 90.0
e 128 119 46.0
e 129 236 4.0
e 129 128 10.0
e 130 210 2.0
e 130 129 11.0
e 131 233 2.0
e 131 130 1.0
e 132 135 3.0
e 132 131 2.0
e 137 177 86.0
e 138 157 4.0
e 138 132 1.0
e 139 140 46.0
e 139 242 48.0
e 139 143 100.0
e 139 252 39.0
e 139 145 96.0
e 139 138 82.0
e 146 147 3.0
e 146 139 32.0
e 149 235 5.0
e 149 146 6.0
e 150 200 25.0
e 156 260 89.0
e 158 204 8.0
e 160 161 7.0
e 160 149 1.0
e 162 163 1.0
e 162 160 1.0
e 164 165 2.0
e 164 162 2.0
e 166 190 88.0
e 167 211 20.0
e 167 168 32.0
e 167 192 5.0
e 167 164 49.0
e 169 205 6.0
e 169 167 45.0
e 170 171 5.0
e 170 169 2.0
e 173 174 11.0
e 173 170 9.0
e 176 305 3.0
e 176 173 1.0
e 177 178 28.0
e 177 179 75.0
e 177 180 61.0
e 181 187 8.0
e 181 176 1.0
e 188 214 1.0
e 188 181 2.0
e 189 190 10.0
e 190 191 74.0
e 190 193 80.0
e 190 225 37.0
e 194 195 17.0
e 194 310 4.0
e 194 188 14.0
e 196 197 28.0
e 196 194 4.0
e 197 216 32.0
e 197 201 28.0
e 197 203 49.0
e 197 212 9.0
e 215 219 1.0
e 215 196 3.0
e 220 256 6.0
e 220 215 8.0
e 221 222 21.0
e 223 224 2.0
e 223 220 7.0
e 225 226 66.0
e 225 227 81.0
e 225 274 1.0
e 228 230 3.0
e 228 223 3.0
e 230 239 19.0
e 230 240 35.0
e 241 243 2.0
e 241 228 1.0
e 244 246 1.0
e 244 241 2.0
e 247 249 4.0
e 247 250 23.0
e 250 251 7.0
e 250 253 10.0
e 250 254 51.0
e 251 253 41.0
e 251 255 75.0
e 251 257 97.0
e 260 261 50.0
e 260 269 21.0
e 260 292 40.0
e 260 275 64.0
e 262 263 2.0
e 262 244 1.0
e 264 266 1.0
e 264 262 2.0
e 267 268 5.0
e 267 264 1.0
e 270 277 1.0
e 270 267 1.0
e 279 280 1.0
e 279 270 1.0
e 281 282 2.0
e 281 279 2.0
e 283 284 9.0
e 284 286 73.0
e 284 290 41.0
e 284 291 61.0
e 290 291 88.0
e 290 294 14.0
e 290 298 78.0
e 291 298 91.0
e 299 300 2.0
e 299 281 1.0
e 301 302 1.0
e 301 299 1.0
e 304 306 1.0
e 304 301 1.0
e 308 310 72.0
e 310 312 90.0
e 310 313 92.0
e 310 314 36.0
e 312 315 33.0
e 315 317 4.0
e 315 318 89.0
e 315 319 11.0
